n = 28;
k = 4;
roles = [
{m, g},
{d, f},
{m, f},
{d, g},
{d, f},
{g, m},
{m, d},
{d, m},
{g, d},
{g, f},
{f, m},
{d, m},
{g, f},
{f, g},
{g, m},
{f, m},
{g, m},
{g, m},
{f, g},
{m, g},
{d, m},
{d, g},
{m, g},
{f, g},
{f, g},
{m, f},
{m, d},
{g, m}
];
num_pairs = 2;
player1 = [19, 5];
player2 = [27, 18];
